webassembly/ejemplos_dzn/folder9_json_12.dzn
TERM = { '.', 's(2)', 'in_1', 'local_1', 'in_2', 's(1)', 's(0)', 's(3)', 'in_0'};
null = '.';
s = 9;
n = 9;
ndeps = 2;
max_registers_sz = 4;
NR = 1;
registers = [|'local_1', 'in_2'|];
dependencies = [|'i32.load8_u_1', 'i32.store_3', |'i32.load8_u_1', 'i32.store8_5'|];
GET_ENUM = { GET1, GET2, GET3, GET4, GET5};
SET_ENUM = { SET1, SET2, SET3, SET4, SET5};
TEE_ENUM = { TEE1, TEE2, TEE3, TEE4, TEE5};
N = 6;
OP = { 'i32.add_0', 'i32.load8_u_1', 'i32.const_0', 'i32.store_3', 'i32.const_1', 'i32.store8_5' };
in_ops = [2, 1, 0, 2, 0, 2 ];
out_ops = [1, 1, 1, 0, 1, 0 ];
in1 = ['in_2', 'in_0', '.', 's(2)', '.', 's(3)' ];
in2 = ['in_2', '.', '.', 's(0)', '.', 'in_1' ];
in3 = ['.', '.', '.', '.', '.', '.' ];
out1 = ['s(1)', 's(0)', 's(2)', '.', 's(3)', '.' ];
out2 = ['.', '.', '.', '.', '.', '.' ];
out3 = ['.', '.', '.', '.', '.', '.' ];
comm = [true, false, false, false, false, false ];
gas = [1, 1, 1, 1, 1, 1 ];
sz = [1, 1, 1, 1, 1, 1 ];
stor = [false, false, false, true, false, true ];
lb = [ 1, 1, 1, 1, 1, 1 ];
ub = [ 9, 9, 9, 9, 9, 9 ];
startstack = [ 'in_0', 'in_1', 'in_2', null, null, null, null, null, null ];
endstack = [ 's(1)', null, null, null, null, null, null, null, null ];
